70
    1    20    19
    2    17    23
    3     7     1
    4    22    16
    5     5     1
    6    10     3
    7    10     8
    8    24    17
    9    44    40
   10    23    17
   11    64    67
   12    61    64
   13    59    63
   14    21    23
   15    27    30
   16    14    20
   17    16    18
   18    66    67
   19    13     8
   20    58    55
   21    46    46
   22    68    69
   23    31    33
   24    46    42
   25    25    26
   26    17    11
   27    38    33
   28    48    41
   29     1     3
   30    40    42
   31    10    13
   32    52    53
   33    31    37
   34    25    28
   35    71    67
   36     1     6
   37    61    67
   38    68    70
   39    19    25
   40    42    42
   41    43    38
   42    38    39
   43    23    25
   44    21    23
   45    13     6
   46    50    48
   47    50    47
   48     4     9
   49    58    58
   50     8     7
   51    52    52
   52    55    53
   53    34    30
   54     4    11
   55    56    52
   56    39    33
   57    71    66
   58     8    14
   59    19    23
   60    56    49
   61    25    24
   62    52    52
   63     1     3
   64    50    52
   65    10     3
   66     9    11
   67    39    46
   68    10     4
   69    72    69
   70    27    29
71
